
  32    4
  10   10   10   10

   0   0   0   0   0  12 2 4 6 7 8 9 11 12 14 20 21 22 
  10   1   0   1   1   7 31 30 28 19 18 17 3 
   4   7   1   0   1   4 29 27 13 5 
   9   3   0   7   3   5 27 26 18 15 13 
  10   1   3   0   5   4 26 25 16 10 
   7   0   4   2   3   4 31 25 18 17 
   5   4   2   0   3   5 28 26 25 24 23 
   6   0   1   5   5   3 29 24 15 
   8   0   8   6   4   3 28 27 23 
   1   3   0   5   5   2 24 15 
   9   6   3   0   6   2 30 17 
   9   0   4   3   7   2 25 16 
   1   3   0   4   6   2 25 23 
   4   6   2   6   0   2 26 23 
   5   4   2   0   5   1 23 
  10   3   4   4   0   1 24 
   1   0   6   3   4   1 24 
   1   4   2   3   0   1 23 
   6   2   6   0   2   1 23 
   5   6   5   0   6   1 26 
   6   5   7   4   0   1 25 
   3   6   0   5   5   1 25 
  10   4   4   0   3   1 32
   9   3   3   0   2   1 32
   3   4   7   0   7   1 32
   9   5   5   0   3   1 32
   1   3   0   2   2   1 32
   2   3   4   5   0   1 32
   7   0   4   4   5   1 32
   4   0   5   6   3   1 32
   6   6   0   1   4   1 32
   0   0   0   0   0   0 
